
Log for 'CPLEX' Clone_2 (V12.10.0.0) Mon Jul 31 16:33:27 2023

Tried aggregator 1 time.
LP Presolve eliminated 876 rows and 288 columns.
Aggregator did 987 substitutions.
Reduced LP has 1662 rows, 2044 columns, and 5930 nonzeros.
Presolve time = 0.02 sec. (4.18 ticks)
Symmetry aggregator did 949 additional substitutions.

Iteration log . . .
Iteration:     1    Scaled infeas =   31311052787.212505
Iteration:   150    Scaled infeas =    7661391663.010839
Iteration:   265    Scaled infeas =    3725112505.024961
Iteration:   390    Scaled infeas =    2151885791.148768
Iteration:   519    Scaled infeas =     605268308.846997
Iteration:   622    Scaled infeas =      52013922.137274
Switched to devex.
Iteration:   705    Objective     =    2407568744.669459
Removing shift (10).

Dual simplex solved model.


Log for 'CPLEX' Clone_2 (V12.10.0.0) Mon Jul 31 16:38:37 2023

Tried aggregator 1 time.
LP Presolve eliminated 876 rows and 288 columns.
Aggregator did 987 substitutions.
Reduced LP has 1662 rows, 2044 columns, and 5930 nonzeros.
Presolve time = 0.02 sec. (4.18 ticks)
Symmetry aggregator did 949 additional substitutions.

Iteration log . . .
Iteration:     1    Scaled infeas =   31311052787.212505
Iteration:   150    Scaled infeas =    7661391663.010839
Iteration:   265    Scaled infeas =    3725112505.024961
Iteration:   390    Scaled infeas =    2151885791.148768
Iteration:   519    Scaled infeas =     605268308.846997
Iteration:   622    Scaled infeas =      52013922.137274
Switched to devex.
Iteration:   705    Objective     =    2407568744.669459
Iteration:   817    Objective     =     870794352.498490
Iteration:   935    Objective     =     507265248.766908
Removing shift (10).

Dual simplex solved model.

